language ESSENCE' 1.0
letting initGrid be [
[3, 3, 1, 2, 3, 3], 
[2, 1, 3, 2, 3, 3], 
[1, 3, 2, 2, 1, 2], 
[2, 1, 2, 3, 1, 3], 
[2, 1, 1, 3, 1, 1], 
[1, 3, 2, 1, 3, 1]
]
letting goalBlocksRemaining be 4
letting noSteps be 7
